20
27	249	334	99	44
7	253	222	57	44
8	236	215	45	37
30	192	139	63	8
12	179	118	31	76
14	160	319	49	20
11	228	253	82	34
27	217	124	61	98
7	160	226	23	82
22	231	339	68	76
12	157	116	35	34
1	38	177	19	60
6	71	268	98	1
29	179	203	90	79
9	69	136	40	38
11	79	191	28	27
10	28	309	98	96
7	246	162	15	23
8	49	155	54	70
5	43	129	3	55
